NAME : 16.77436.tour
COMMENT : Length = 77436
COMMENT : Found by LKH-3 [Keld Helsgaun] Thu Jun 19 18:16:23 2025
TYPE : TOUR
DIMENSION : 100
TOUR_SECTION
1
22
56
43
17
63
78
68
55
19
26
28
3
23
33
53
11
31
58
21
96
67
20
64
44
57
6
14
65
88
2
48
86
92
66
40
89
46
18
91
12
69
29
8
54
52
36
84
49
62
99
77
27
45
73
60
38
72
95
87
25
5
35
24
59
94
93
70
50
51
90
79
34
85
7
9
10
13
61
97
80
42
82
4
71
30
76
41
81
39
98
74
15
37
75
16
100
32
47
83
-1
EOF
